Version identifier: 22.1.0.0 | 2022-03-09 | 1a383f8ce
CPXPARAM_Threads                                 1
CPXPARAM_MIP_Strategy_VariableSelect             3
CPXPARAM_TimeLimit                               599.99997513799997
1 of 1 MIP starts provided solutions.
MIP start 'm1' defined initial solution with objective 35.0000.
Tried aggregator 1 time.
MIP Presolve eliminated 16 rows and 0 columns.
MIP Presolve modified 218 coefficients.
Reduced MIP has 2705 rows, 6300 columns, and 97591 nonzeros.
Reduced MIP has 6300 binaries, 0 generals, 0 SOSs, and 0 indicators.
Presolve time = 0.13 sec. (210.33 ticks)
Probing time = 0.02 sec. (15.56 ticks)
Tried aggregator 1 time.
Detecting symmetries...
MIP Presolve modified 17 coefficients.
Reduced MIP has 2705 rows, 6300 columns, and 97836 nonzeros.
Reduced MIP has 6300 binaries, 0 generals, 0 SOSs, and 0 indicators.
Presolve time = 0.10 sec. (152.99 ticks)
Probing time = 0.02 sec. (15.58 ticks)
Clique table members: 2168.
MIP emphasis: balance optimality and feasibility.
MIP search method: dynamic search.
Parallel mode: none, using 1 thread.
Root relaxation solution time = 4.70 sec. (5460.69 ticks)

        Nodes                                         Cuts/
   Node  Left     Objective  IInf  Best Integer    Best Bound    ItCnt     Gap

*     0+    0                           35.0000    45150.0000              --- 
      0     0      300.0000  1405       35.0000      300.0000    13639  757.14%
      0     0      300.0000   256       35.0000      Cuts: 12    36020  757.14%
*     0+    0                          300.0000      300.0000             0.00%
      0     0        cutoff            300.0000      300.0000    36020    0.00%
Elapsed time = 33.87 sec. (37754.49 ticks, tree = 0.01 MB, solutions = 2)

Clique cuts applied:  6
Zero-half cuts applied:  4

Root node processing (before b&c):
  Real time             =   33.87 sec. (37755.07 ticks)
Sequential b&c:
  Real time             =    0.00 sec. (0.00 ticks)
                          ------------
Total (root+branch&cut) =   33.87 sec. (37755.07 ticks)
Primal:	300
Dual:	300
Status:	Optimal
Time:	33.9
Sequence:
	19
	0
	5
	18
	16
	2
	18
	17
	3
	15
	8
	4
	0
	19
	3
	3
	17
	18
	3
	17
	18
	3
	17
	18
	3
	17
	18
	2
	16
	9
	7
	16
	9
	7
	17
	1
	7
	17
	1
	7
	17
	1
	15
	16
	2
	18
	17
	3
	1
	17
	7
	9
	16
	7
	9
	6
	11
	10
	6
	11
	10
	6
	7
	9
	16
	2
	18
	17
	3
	18
	17
	3
	15
	8
	0
	15
	8
	0
	15
	8
	4
	11
	8
	2
	0
	19
	4
	0
	18
	14
	5
	11
	8
	5
	11
	8
	5
	11
	10
	6
	11
	4
	8
	11
	3
	14
	13
	4
	6
	11
	5
	8
	11
	4
	9
	12
	2
	4
	19
	0
	3
	19
	0
	4
	19
	0
	5
	19
	0
	5
	19
	0
	4
	19
	0
	4
	19
	0
	4
	19
	5
	0
	19
	3
	4
	12
	1
	4
	12
	9
	4
	12
	9
	5
	12
	10
	2
	12
	10
	5
	14
	13
	2
	6
	13
	4
	14
	18
	0
	14
	10
	11
	6
	10
	2
	12
	2
	1
	17
	3
	18
	17
	3
	18
	16
	5
	1
	12
	5
	9
	12
	2
	5
	13
	4
	14
	13
	2
	6
	13
	4
	14
	13
	2
	6
	13
	4
	14
	13
	4
	14
	13
	5
	5
	11
	8
	5
	11
	8
	5
	15
	16
	1
	15
	16
	1
	15
	16
	1
	15
	6
	10
	11
	6
	9
	7
	17
	1
	2
	16
	15
	1
	17
	7
	3
	8
	15
	0
	8
	15
	0
	8
	15
	0
	9
	6
	11
	10
	6
	11
	10
	6
	11
	10
	14
	0
	18
	6
	3
	9
	16
	15
	1
	17
	7
	9
	16
	15
	1
	17
	7
	9
	16
	15
	1
	17
	7
	9
	4
	6
	13
	2
	6
	13
	5
	14
	13
	5
	14
	13
